data;

param n:=28;
param p:=3;
param r:=[1] 0 [2] 0 [3] 2 [4] 6 [5] 8 [6] 12 [7] 0 [8] 6 [9] 8 [10] 20 [11] 29 [12] 13 [13] 9 [14] 9 [15] 7 [16] 10 [17] 19 [18] 30 [19] 33 [20] 31 [21] 47 [22] 10 [23] 41 [24] 67 [25] 58 [26] 17 [27] 10 [28] 30 ;
param w:=[1] 85 [2] 84 [3] 43 [4] 18 [5] 46 [6] 8 [7] 69 [8] 80 [9] 3 [10] 44 [11] 91 [12] 26 [13] 4 [14] 75 [15] 11 [16] 91 [17] 83 [18] 35 [19] 17 [20] 62 [21] 19 [22] 28 [23] 30 [24] 27 [25] 55 [26] 44 [27] 98 [28] 18 ;

end;
